28320.36,46.12,50.79
31138.0,41.95,46.2
30835.11,42.36,46.65
33139.53,39.42,43.41
28681.69,45.54,50.15
27696.75,47.16,51.94
28878.24,45.23,49.81
27703.34,47.15,51.92
28617.02,45.64,50.27
29469.49,44.32,48.81
29360.14,44.49,48.99
29648.95,44.06,48.52
27764.35,47.05,51.81
26772.14,48.79,53.73
30398.05,42.97,47.32
28033.2,46.59,51.31
31025.32,42.1,46.36
26204.28,49.85,54.89
31870.14,40.99,45.14
27341.47,47.77,52.61
